c File: flat100_3_0.col
c
c SOURCE: Joseph Culberson (joe@cs.ualberta.ca)
c DESCRIPTION: Quasi-random coloring problem
c              generated with flatness = 0
c                             probability = 0.072
c                             known coloring = 3
c                             random seed = 1056
c              Creation Date:  Thu Jun  4 18:56:04 1998
c Maximum degree = 8 Minimum degree = 1
c p edge 100 239
c cnf created by edge2cnf
p cnf 300 1117
-1 -2 0
-1 -3 0
-2 -3 0
1 2 3 0
-4 -5 0
-4 -6 0
-5 -6 0
4 5 6 0
-7 -8 0
-7 -9 0
-8 -9 0
7 8 9 0
-10 -11 0
-10 -12 0
-11 -12 0
10 11 12 0
-13 -14 0
-13 -15 0
-14 -15 0
13 14 15 0
-16 -17 0
-16 -18 0
-17 -18 0
16 17 18 0
-19 -20 0
-19 -21 0
-20 -21 0
19 20 21 0
-22 -23 0
-22 -24 0
-23 -24 0
22 23 24 0
-25 -26 0
-25 -27 0
-26 -27 0
25 26 27 0
-28 -29 0
-28 -30 0
-29 -30 0
28 29 30 0
-31 -32 0
-31 -33 0
-32 -33 0
31 32 33 0
-34 -35 0
-34 -36 0
-35 -36 0
34 35 36 0
-37 -38 0
-37 -39 0
-38 -39 0
37 38 39 0
-40 -41 0
-40 -42 0
-41 -42 0
40 41 42 0
-43 -44 0
-43 -45 0
-44 -45 0
43 44 45 0
-46 -47 0
-46 -48 0
-47 -48 0
46 47 48 0
-49 -50 0
-49 -51 0
-50 -51 0
49 50 51 0
-52 -53 0
-52 -54 0
-53 -54 0
52 53 54 0
-55 -56 0
-55 -57 0
-56 -57 0
55 56 57 0
-58 -59 0
-58 -60 0
-59 -60 0
58 59 60 0
-61 -62 0
-61 -63 0
-62 -63 0
61 62 63 0
-64 -65 0
-64 -66 0
-65 -66 0
64 65 66 0
-67 -68 0
-67 -69 0
-68 -69 0
67 68 69 0
-70 -71 0
-70 -72 0
-71 -72 0
70 71 72 0
-73 -74 0
-73 -75 0
-74 -75 0
73 74 75 0
-76 -77 0
-76 -78 0
-77 -78 0
76 77 78 0
-79 -80 0
-79 -81 0
-80 -81 0
79 80 81 0
-82 -83 0
-82 -84 0
-83 -84 0
82 83 84 0
-85 -86 0
-85 -87 0
-86 -87 0
85 86 87 0
-88 -89 0
-88 -90 0
-89 -90 0
88 89 90 0
-91 -92 0
-91 -93 0
-92 -93 0
91 92 93 0
-94 -95 0
-94 -96 0
-95 -96 0
94 95 96 0
-97 -98 0
-97 -99 0
-98 -99 0
97 98 99 0
-100 -101 0
-100 -102 0
-101 -102 0
100 101 102 0
-103 -104 0
-103 -105 0
-104 -105 0
103 104 105 0
-106 -107 0
-106 -108 0
-107 -108 0
106 107 108 0
-109 -110 0
-109 -111 0
-110 -111 0
109 110 111 0
-112 -113 0
-112 -114 0
-113 -114 0
112 113 114 0
-115 -116 0
-115 -117 0
-116 -117 0
115 116 117 0
-118 -119 0
-118 -120 0
-119 -120 0
118 119 120 0
-121 -122 0
-121 -123 0
-122 -123 0
121 122 123 0
-124 -125 0
-124 -126 0
-125 -126 0
124 125 126 0
-127 -128 0
-127 -129 0
-128 -129 0
127 128 129 0
-130 -131 0
-130 -132 0
-131 -132 0
130 131 132 0
-133 -134 0
-133 -135 0
-134 -135 0
133 134 135 0
-136 -137 0
-136 -138 0
-137 -138 0
136 137 138 0
-139 -140 0
-139 -141 0
-140 -141 0
139 140 141 0
-142 -143 0
-142 -144 0
-143 -144 0
142 143 144 0
-145 -146 0
-145 -147 0
-146 -147 0
145 146 147 0
-148 -149 0
-148 -150 0
-149 -150 0
148 149 150 0
-151 -152 0
-151 -153 0
-152 -153 0
151 152 153 0
-154 -155 0
-154 -156 0
-155 -156 0
154 155 156 0
-157 -158 0
-157 -159 0
-158 -159 0
157 158 159 0
-160 -161 0
-160 -162 0
-161 -162 0
160 161 162 0
-163 -164 0
-163 -165 0
-164 -165 0
163 164 165 0
-166 -167 0
-166 -168 0
-167 -168 0
166 167 168 0
-169 -170 0
-169 -171 0
-170 -171 0
169 170 171 0
-172 -173 0
-172 -174 0
-173 -174 0
172 173 174 0
-175 -176 0
-175 -177 0
-176 -177 0
175 176 177 0
-178 -179 0
-178 -180 0
-179 -180 0
178 179 180 0
-181 -182 0
-181 -183 0
-182 -183 0
181 182 183 0
-184 -185 0
-184 -186 0
-185 -186 0
184 185 186 0
-187 -188 0
-187 -189 0
-188 -189 0
187 188 189 0
-190 -191 0
-190 -192 0
-191 -192 0
190 191 192 0
-193 -194 0
-193 -195 0
-194 -195 0
193 194 195 0
-196 -197 0
-196 -198 0
-197 -198 0
196 197 198 0
-199 -200 0
-199 -201 0
-200 -201 0
199 200 201 0
-202 -203 0
-202 -204 0
-203 -204 0
202 203 204 0
-205 -206 0
-205 -207 0
-206 -207 0
205 206 207 0
-208 -209 0
-208 -210 0
-209 -210 0
208 209 210 0
-211 -212 0
-211 -213 0
-212 -213 0
211 212 213 0
-214 -215 0
-214 -216 0
-215 -216 0
214 215 216 0
-217 -218 0
-217 -219 0
-218 -219 0
217 218 219 0
-220 -221 0
-220 -222 0
-221 -222 0
220 221 222 0
-223 -224 0
-223 -225 0
-224 -225 0
223 224 225 0
-226 -227 0
-226 -228 0
-227 -228 0
226 227 228 0
-229 -230 0
-229 -231 0
-230 -231 0
229 230 231 0
-232 -233 0
-232 -234 0
-233 -234 0
232 233 234 0
-235 -236 0
-235 -237 0
-236 -237 0
235 236 237 0
-238 -239 0
-238 -240 0
-239 -240 0
238 239 240 0
-241 -242 0
-241 -243 0
-242 -243 0
241 242 243 0
-244 -245 0
-244 -246 0
-245 -246 0
244 245 246 0
-247 -248 0
-247 -249 0
-248 -249 0
247 248 249 0
-250 -251 0
-250 -252 0
-251 -252 0
250 251 252 0
-253 -254 0
-253 -255 0
-254 -255 0
253 254 255 0
-256 -257 0
-256 -258 0
-257 -258 0
256 257 258 0
-259 -260 0
-259 -261 0
-260 -261 0
259 260 261 0
-262 -263 0
-262 -264 0
-263 -264 0
262 263 264 0
-265 -266 0
-265 -267 0
-266 -267 0
265 266 267 0
-268 -269 0
-268 -270 0
-269 -270 0
268 269 270 0
-271 -272 0
-271 -273 0
-272 -273 0
271 272 273 0
-274 -275 0
-274 -276 0
-275 -276 0
274 275 276 0
-277 -278 0
-277 -279 0
-278 -279 0
277 278 279 0
-280 -281 0
-280 -282 0
-281 -282 0
280 281 282 0
-283 -284 0
-283 -285 0
-284 -285 0
283 284 285 0
-286 -287 0
-286 -288 0
-287 -288 0
286 287 288 0
-289 -290 0
-289 -291 0
-290 -291 0
289 290 291 0
-292 -293 0
-292 -294 0
-293 -294 0
292 293 294 0
-295 -296 0
-295 -297 0
-296 -297 0
295 296 297 0
-298 -299 0
-298 -300 0
-299 -300 0
298 299 300 0
-103 -1 0
-104 -2 0
-105 -3 0
-127 -1 0
-128 -2 0
-129 -3 0
-157 -1 0
-158 -2 0
-159 -3 0
-160 -1 0
-161 -2 0
-162 -3 0
-223 -1 0
-224 -2 0
-225 -3 0
-262 -1 0
-263 -2 0
-264 -3 0
-271 -1 0
-272 -2 0
-273 -3 0
-124 -4 0
-125 -5 0
-126 -6 0
-163 -4 0
-164 -5 0
-165 -6 0
-193 -4 0
-194 -5 0
-195 -6 0
-244 -4 0
-245 -5 0
-246 -6 0
-283 -4 0
-284 -5 0
-285 -6 0
-133 -7 0
-134 -8 0
-135 -9 0
-148 -7 0
-149 -8 0
-150 -9 0
-193 -7 0
-194 -8 0
-195 -9 0
-289 -7 0
-290 -8 0
-291 -9 0
-133 -10 0
-134 -11 0
-135 -12 0
-145 -10 0
-146 -11 0
-147 -12 0
-160 -10 0
-161 -11 0
-162 -12 0
-220 -10 0
-221 -11 0
-222 -12 0
-271 -10 0
-272 -11 0
-273 -12 0
-274 -10 0
-275 -11 0
-276 -12 0
-193 -13 0
-194 -14 0
-195 -15 0
-223 -13 0
-224 -14 0
-225 -15 0
-277 -13 0
-278 -14 0
-279 -15 0
-136 -16 0
-137 -17 0
-138 -18 0
-205 -16 0
-206 -17 0
-207 -18 0
-262 -16 0
-263 -17 0
-264 -18 0
-280 -16 0
-281 -17 0
-282 -18 0
-136 -19 0
-137 -20 0
-138 -21 0
-148 -19 0
-149 -20 0
-150 -21 0
-262 -19 0
-263 -20 0
-264 -21 0
-172 -22 0
-173 -23 0
-174 -24 0
-196 -22 0
-197 -23 0
-198 -24 0
-214 -22 0
-215 -23 0
-216 -24 0
-217 -22 0
-218 -23 0
-219 -24 0
-118 -25 0
-119 -26 0
-120 -27 0
-142 -25 0
-143 -26 0
-144 -27 0
-148 -25 0
-149 -26 0
-150 -27 0
-256 -25 0
-257 -26 0
-258 -27 0
-289 -25 0
-290 -26 0
-291 -27 0
-298 -25 0
-299 -26 0
-300 -27 0
-103 -28 0
-104 -29 0
-105 -30 0
-145 -28 0
-146 -29 0
-147 -30 0
-217 -28 0
-218 -29 0
-219 -30 0
-151 -31 0
-152 -32 0
-153 -33 0
-166 -31 0
-167 -32 0
-168 -33 0
-208 -31 0
-209 -32 0
-210 -33 0
-214 -31 0
-215 -32 0
-216 -33 0
-244 -31 0
-245 -32 0
-246 -33 0
-289 -31 0
-290 -32 0
-291 -33 0
-118 -34 0
-119 -35 0
-120 -36 0
-148 -34 0
-149 -35 0
-150 -36 0
-199 -34 0
-200 -35 0
-201 -36 0
-205 -34 0
-206 -35 0
-207 -36 0
-208 -34 0
-209 -35 0
-210 -36 0
-256 -34 0
-257 -35 0
-258 -36 0
-277 -34 0
-278 -35 0
-279 -36 0
-118 -37 0
-119 -38 0
-120 -39 0
-151 -37 0
-152 -38 0
-153 -39 0
-166 -37 0
-167 -38 0
-168 -39 0
-178 -37 0
-179 -38 0
-180 -39 0
-229 -37 0
-230 -38 0
-231 -39 0
-109 -40 0
-110 -41 0
-111 -42 0
-238 -40 0
-239 -41 0
-240 -42 0
-133 -43 0
-134 -44 0
-135 -45 0
-151 -43 0
-152 -44 0
-153 -45 0
-163 -43 0
-164 -44 0
-165 -45 0
-175 -43 0
-176 -44 0
-177 -45 0
-205 -43 0
-206 -44 0
-207 -45 0
-250 -43 0
-251 -44 0
-252 -45 0
-271 -43 0
-272 -44 0
-273 -45 0
-109 -46 0
-110 -47 0
-111 -48 0
-187 -46 0
-188 -47 0
-189 -48 0
-193 -46 0
-194 -47 0
-195 -48 0
-205 -46 0
-206 -47 0
-207 -48 0
-274 -46 0
-275 -47 0
-276 -48 0
-103 -49 0
-104 -50 0
-105 -51 0
-181 -49 0
-182 -50 0
-183 -51 0
-184 -49 0
-185 -50 0
-186 -51 0
-232 -49 0
-233 -50 0
-234 -51 0
-277 -49 0
-278 -50 0
-279 -51 0
-106 -52 0
-107 -53 0
-108 -54 0
-109 -52 0
-110 -53 0
-111 -54 0
-184 -52 0
-185 -53 0
-186 -54 0
-190 -52 0
-191 -53 0
-192 -54 0
-238 -52 0
-239 -53 0
-240 -54 0
-172 -55 0
-173 -56 0
-174 -57 0
-259 -55 0
-260 -56 0
-261 -57 0
-268 -55 0
-269 -56 0
-270 -57 0
-277 -55 0
-278 -56 0
-279 -57 0
-280 -55 0
-281 -56 0
-282 -57 0
-127 -58 0
-128 -59 0
-129 -60 0
-142 -58 0
-143 -59 0
-144 -60 0
-187 -58 0
-188 -59 0
-189 -60 0
-199 -58 0
-200 -59 0
-201 -60 0
-208 -58 0
-209 -59 0
-210 -60 0
-265 -58 0
-266 -59 0
-267 -60 0
-286 -58 0
-287 -59 0
-288 -60 0
-163 -61 0
-164 -62 0
-165 -63 0
-217 -61 0
-218 -62 0
-219 -63 0
-226 -61 0
-227 -62 0
-228 -63 0
-268 -61 0
-269 -62 0
-270 -63 0
-286 -61 0
-287 -62 0
-288 -63 0
-112 -64 0
-113 -65 0
-114 -66 0
-187 -64 0
-188 -65 0
-189 -66 0
-133 -67 0
-134 -68 0
-135 -69 0
-262 -67 0
-263 -68 0
-264 -69 0
-112 -70 0
-113 -71 0
-114 -72 0
-115 -70 0
-116 -71 0
-117 -72 0
-124 -70 0
-125 -71 0
-126 -72 0
-136 -70 0
-137 -71 0
-138 -72 0
-253 -70 0
-254 -71 0
-255 -72 0
-268 -70 0
-269 -71 0
-270 -72 0
-286 -70 0
-287 -71 0
-288 -72 0
-289 -70 0
-290 -71 0
-291 -72 0
-112 -73 0
-113 -74 0
-114 -75 0
-172 -73 0
-173 -74 0
-174 -75 0
-175 -73 0
-176 -74 0
-177 -75 0
-217 -73 0
-218 -74 0
-219 -75 0
-283 -73 0
-284 -74 0
-285 -75 0
-163 -76 0
-164 -77 0
-165 -78 0
-241 -76 0
-242 -77 0
-243 -78 0
-244 -76 0
-245 -77 0
-246 -78 0
-259 -76 0
-260 -77 0
-261 -78 0
-238 -79 0
-239 -80 0
-240 -81 0
-250 -79 0
-251 -80 0
-252 -81 0
-292 -79 0
-293 -80 0
-294 -81 0
-178 -82 0
-179 -83 0
-180 -84 0
-229 -82 0
-230 -83 0
-231 -84 0
-238 -82 0
-239 -83 0
-240 -84 0
-244 -82 0
-245 -83 0
-246 -84 0
-286 -82 0
-287 -83 0
-288 -84 0
-202 -85 0
-203 -86 0
-204 -87 0
-226 -85 0
-227 -86 0
-228 -87 0
-247 -85 0
-248 -86 0
-249 -87 0
-253 -85 0
-254 -86 0
-255 -87 0
-196 -88 0
-197 -89 0
-198 -90 0
-214 -88 0
-215 -89 0
-216 -90 0
-232 -88 0
-233 -89 0
-234 -90 0
-271 -88 0
-272 -89 0
-273 -90 0
-280 -88 0
-281 -89 0
-282 -90 0
-136 -91 0
-137 -92 0
-138 -93 0
-178 -91 0
-179 -92 0
-180 -93 0
-190 -91 0
-191 -92 0
-192 -93 0
-250 -91 0
-251 -92 0
-252 -93 0
-103 -94 0
-104 -95 0
-105 -96 0
-115 -94 0
-116 -95 0
-117 -96 0
-130 -94 0
-131 -95 0
-132 -96 0
-151 -94 0
-152 -95 0
-153 -96 0
-109 -97 0
-110 -98 0
-111 -99 0
-130 -97 0
-131 -98 0
-132 -99 0
-157 -97 0
-158 -98 0
-159 -99 0
-172 -97 0
-173 -98 0
-174 -99 0
-208 -97 0
-209 -98 0
-210 -99 0
-250 -97 0
-251 -98 0
-252 -99 0
-118 -100 0
-119 -101 0
-120 -102 0
-196 -100 0
-197 -101 0
-198 -102 0
-253 -100 0
-254 -101 0
-255 -102 0
-283 -100 0
-284 -101 0
-285 -102 0
-292 -100 0
-293 -101 0
-294 -102 0
-205 -103 0
-206 -104 0
-207 -105 0
-232 -106 0
-233 -107 0
-234 -108 0
-235 -109 0
-236 -110 0
-237 -111 0
-241 -112 0
-242 -113 0
-243 -114 0
-295 -112 0
-296 -113 0
-297 -114 0
-235 -115 0
-236 -116 0
-237 -117 0
-253 -115 0
-254 -116 0
-255 -117 0
-271 -115 0
-272 -116 0
-273 -117 0
-280 -115 0
-281 -116 0
-282 -117 0
-253 -118 0
-254 -119 0
-255 -120 0
-259 -118 0
-260 -119 0
-261 -120 0
-298 -118 0
-299 -119 0
-300 -120 0
-214 -121 0
-215 -122 0
-216 -123 0
-295 -121 0
-296 -122 0
-297 -123 0
-220 -124 0
-221 -125 0
-222 -126 0
-232 -124 0
-233 -125 0
-234 -126 0
-235 -124 0
-236 -125 0
-237 -126 0
-250 -124 0
-251 -125 0
-252 -126 0
-217 -127 0
-218 -128 0
-219 -129 0
-253 -127 0
-254 -128 0
-255 -129 0
-202 -130 0
-203 -131 0
-204 -132 0
-256 -130 0
-257 -131 0
-258 -132 0
-289 -130 0
-290 -131 0
-291 -132 0
-220 -133 0
-221 -134 0
-222 -135 0
-280 -139 0
-281 -140 0
-282 -141 0
-208 -142 0
-209 -143 0
-210 -144 0
-217 -145 0
-218 -146 0
-219 -147 0
-223 -145 0
-224 -146 0
-225 -147 0
-235 -145 0
-236 -146 0
-237 -147 0
-259 -145 0
-260 -146 0
-261 -147 0
-214 -148 0
-215 -149 0
-216 -150 0
-286 -148 0
-287 -149 0
-288 -150 0
-262 -151 0
-263 -152 0
-264 -153 0
-265 -151 0
-266 -152 0
-267 -153 0
-283 -151 0
-284 -152 0
-285 -153 0
-295 -151 0
-296 -152 0
-297 -153 0
-232 -154 0
-233 -155 0
-234 -156 0
-250 -154 0
-251 -155 0
-252 -156 0
-256 -157 0
-257 -158 0
-258 -159 0
-220 -160 0
-221 -161 0
-222 -162 0
-226 -163 0
-227 -164 0
-228 -165 0
-229 -163 0
-230 -164 0
-231 -165 0
-280 -163 0
-281 -164 0
-282 -165 0
-298 -163 0
-299 -164 0
-300 -165 0
-229 -169 0
-230 -170 0
-231 -171 0
-250 -169 0
-251 -170 0
-252 -171 0
-283 -169 0
-284 -170 0
-285 -171 0
-238 -172 0
-239 -173 0
-240 -174 0
-241 -172 0
-242 -173 0
-243 -174 0
-271 -172 0
-272 -173 0
-273 -174 0
-211 -175 0
-212 -176 0
-213 -177 0
-250 -175 0
-251 -176 0
-252 -177 0
-292 -175 0
-293 -176 0
-294 -177 0
-298 -175 0
-299 -176 0
-300 -177 0
-202 -178 0
-203 -179 0
-204 -180 0
-256 -178 0
-257 -179 0
-258 -180 0
-259 -178 0
-260 -179 0
-261 -180 0
-202 -181 0
-203 -182 0
-204 -183 0
-217 -181 0
-218 -182 0
-219 -183 0
-262 -181 0
-263 -182 0
-264 -183 0
-283 -181 0
-284 -182 0
-285 -183 0
-262 -184 0
-263 -185 0
-264 -186 0
-280 -184 0
-281 -185 0
-282 -186 0
-283 -184 0
-284 -185 0
-285 -186 0
-211 -187 0
-212 -188 0
-213 -189 0
-202 -190 0
-203 -191 0
-204 -192 0
-211 -190 0
-212 -191 0
-213 -192 0
-259 -190 0
-260 -191 0
-261 -192 0
-292 -190 0
-293 -191 0
-294 -192 0
-274 -193 0
-275 -194 0
-276 -195 0
-289 -193 0
-290 -194 0
-291 -195 0
-220 -196 0
-221 -197 0
-222 -198 0
-229 -196 0
-230 -197 0
-231 -198 0
-265 -196 0
-266 -197 0
-267 -198 0
-295 -196 0
-296 -197 0
-297 -198 0
-223 -199 0
-224 -200 0
-225 -201 0
-274 -199 0
-275 -200 0
-276 -201 0
-298 -199 0
-299 -200 0
-300 -201 0
